benchmarks/norm/simpleloopV2/simpleloopV2_norm_inv1_len2_4.smt2
;--------------------------------------------------------------------------
; Benchmark created with Zazu
; Benchmark: 		simpleloopV2_norm_inv1_len2_4
; Created:   		2022-01-05 21:36
; Generator of the ideal: 
; 		 x - y00 - x00 + y
; Testing invariant: -2*y^3*y00 - 2*x00*y^3 + 2*x*y^3 + 2*y^4
;--------------------------------------------------------------------------

(set-logic NIA)
(set-option :produce-proofs true)

(declare-const x00 Int)
(declare-const y00 Int)

(assert 
	(exists
		((x Int) (y Int))
		(and
			(= (+ (- x y00 x00) y) 0)

			(or
				(not (= (+ (- (* (- 2) (+ y 1) (+ y 1) (+ y 1) y00) (* 2 x00 (+ y 1) (+ y 1) (+ y 1))) (* 2 (- x 1) (+ y 1) (+ y 1) (+ y 1)) (* 2 (+ y 1) (+ y 1) (+ y 1) (+ y 1))) 0))
				(not (= (+ (- (* (- 2) (- y 1) (- y 1) (- y 1) y00) (* 2 x00 (- y 1) (- y 1) (- y 1))) (* 2 (+ x 1) (- y 1) (- y 1) (- y 1)) (* 2 (- y 1) (- y 1) (- y 1) (- y 1))) 0))
			)
		)
	)
)
(check-sat)
(get-proof)
(exit)
